
******************************************************************************
This program contains Ipopt, a library for large-scale nonlinear optimization.
 Ipopt is released as open source code under the Eclipse Public License (EPL).
         For more information visit http://projects.coin-or.org/Ipopt

This version of Ipopt was compiled from source code available at
    https://github.com/IDAES/Ipopt as part of the Institute for the Design of
    Advanced Energy Systems Process Systems Engineering Framework (IDAES PSE
    Framework) Copyright (c) 2018-2019. See https://github.com/IDAES/idaes-pse.

This version of Ipopt was compiled using HSL, a collection of Fortran codes
    for large-scale scientific computation.  All technical papers, sales and
    publicity material resulting from use of the HSL codes within IPOPT must
    contain the following acknowledgement:
        HSL, a collection of Fortran codes for large-scale scientific
        computation. See http://www.hsl.rl.ac.uk.
******************************************************************************

This is Ipopt version 3.13.2, running with linear solver ma27.

Number of nonzeros in equality constraint Jacobian...:     1588
Number of nonzeros in inequality constraint Jacobian.:        0
Number of nonzeros in Lagrangian Hessian.............:     2432

Total number of variables............................:      576
                     variables with only lower bounds:      128
                variables with lower and upper bounds:      384
                     variables with only upper bounds:        0
Total number of equality constraints.................:      570
Total number of inequality constraints...............:        0
        inequality constraints with only lower bounds:        0
   inequality constraints with lower and upper bounds:        0
        inequality constraints with only upper bounds:        0

iter    objective    inf_pr   inf_du lg(mu)  ||d||  lg(rg) alpha_du alpha_pr  ls
   0  0.0000000e+00 1.74e+00 1.02e-14  -1.0 0.00e+00    -  0.00e+00 0.00e+00   0
   1  4.8798773e+01 1.63e+00 1.04e+05  -1.0 1.14e+06    -  1.18e-01 6.34e-02h  2
   2  5.6330029e+01 1.62e+00 1.03e+05  -1.0 1.07e+06    -  2.64e-02 5.70e-03h  4
   3  8.0382686e+01 1.59e+00 1.02e+05  -1.0 1.08e+06    -  1.02e-01 1.61e-02h  3
   4  1.8618941e+02 1.51e+00 1.00e+05  -1.0 1.03e+06    -  9.66e-02 5.20e-02h  1
   5  1.0643216e+03 1.19e+00 1.70e+05  -1.0 8.13e+05    -  2.31e-01 2.13e-01h  1
   6  4.2592938e+03 4.31e+00 6.59e+06  -1.0 1.39e+06    -  3.36e-01 3.61e-01h  1
   7  4.3151108e+03 3.27e+00 2.96e+06  -1.0 2.88e+05  -4.0 7.47e-02 1.22e-01h  1
   8  5.0583491e+03 5.96e+00 3.83e+06  -1.0 2.30e+05  -4.5 6.12e-01 9.90e-01H  1
   9  5.0582935e+03 6.37e+00 3.36e+06  -1.0 3.37e+04  -5.0 2.65e-01 1.24e-01f  4
iter    objective    inf_pr   inf_du lg(mu)  ||d||  lg(rg) alpha_du alpha_pr  ls
  10  5.0706466e+03 5.98e+00 3.15e+06  -1.0 3.50e+04  -5.4 7.13e-03 6.19e-02h  5
  11  5.0363212e+03 5.77e+00 3.03e+06  -1.0 8.23e+05  -5.9 1.81e-04 3.54e-02f  3
  12  5.1273961e+03 1.93e+00 4.58e+05  -1.0 7.71e+04  -5.5 2.79e-01 9.90e-01h  1
  13  5.1213771e+03 1.85e+00 4.39e+05  -1.0 4.65e+04  -5.1 6.22e-01 4.11e-02h  1
  14  5.1212954e+03 1.85e+00 6.29e+05  -1.0 6.95e+04  -5.5 8.92e-01 6.85e-04h  1
  15  5.0221516e+03 6.84e+00 5.62e+05  -1.0 1.81e+05  -6.0 2.66e-01 1.24e-01f  4
  16  4.9339724e+03 8.52e+00 1.47e+06  -1.0 7.45e+04  -5.6 8.90e-01 4.95e-01f  2
  17  5.0504279e+03 9.35e+00 2.42e+05  -1.0 1.27e+05  -6.1 7.33e-01 9.90e-01h  1
  18  5.0669094e+03 9.35e-02 3.38e+07  -1.0 4.38e+04  -5.6 5.55e-01 9.90e-01h  1
  19  4.9305197e+03 9.35e-04 4.36e+07  -1.0 1.17e+04  -6.1 9.84e-01 9.90e-01f  1
iter    objective    inf_pr   inf_du lg(mu)  ||d||  lg(rg) alpha_du alpha_pr  ls
  20  4.8679434e+03 3.40e-04 5.00e+10  -1.0 7.08e+03  -6.6 9.26e-01 9.90e-01f  1
In iteration 20, 32 Slacks too small, adjusting variable bounds
  21  4.7188251e+03 7.22e-03 2.22e+11  -1.0 2.11e+04  -7.1 9.93e-01 9.90e-01f  1
  22  4.4034920e+03 2.37e-01 4.65e+13  -1.0 1.09e+05  -7.5 1.66e-01 7.68e-01f  1
  23  3.5677216e+03 2.18e+00 3.72e+02  -1.0 2.25e+05  -8.0 1.00e+00 1.00e+00f  1
  24  3.3602154e+03 2.40e-01 3.07e+08  -1.0 2.33e+05    -  7.21e-01 5.00e-01f  2
  25  3.3396127e+03 2.90e+01 1.30e+11  -1.7 1.34e+05    -  9.72e-01 7.49e-01f  1
  26  3.3173840e+03 2.86e+01 1.31e+11  -1.7 1.59e+06    -  2.24e-01 1.41e-02f  1
  27  3.3056319e+03 2.69e+01 1.29e+11  -1.7 7.03e+04    -  5.06e-01 6.09e-02f  1
  28  3.2964822e+03 2.37e+01 1.17e+11  -1.7 1.02e+05    -  6.24e-01 1.20e-01f  1
  29  3.2299086e+03 1.98e+00 1.77e+02  -1.7 4.64e+04    -  1.00e+00 1.00e+00f  1
iter    objective    inf_pr   inf_du lg(mu)  ||d||  lg(rg) alpha_du alpha_pr  ls
  30  3.2274168e+03 6.40e+00 2.44e+02  -1.7 4.55e+04    -  2.61e-01 5.00e-01f  2
  31  2.9107894e+03 6.10e+00 2.55e+02  -1.7 2.93e+04    -  1.00e+00 1.00e+00H  1
  32  3.0608051e+03 4.29e+00 2.63e+02  -1.7 1.64e+05    -  1.00e+00 5.00e-01h  2
  33  3.1572472e+03 2.15e+00 1.56e+02  -1.7 7.89e+04    -  1.00e+00 5.00e-01h  2
  34  3.0745227e+03 2.71e+00 3.67e+01  -1.7 3.87e+04    -  1.00e+00 1.00e+00H  1
  35  3.1100092e+03 2.03e+00 6.09e+01  -1.7 6.28e+04    -  7.87e-01 2.50e-01h  3
  36  3.1141418e+03 1.97e+00 5.93e+01  -1.7 4.30e+04    -  1.00e+00 3.12e-02h  6
  37  3.3255047e+03 2.81e+00 3.77e+02  -1.7 4.23e+04    -  5.31e-01 1.00e+00h  1
  38  3.2385399e+03 2.85e-02 1.56e+02  -1.7 3.14e+04    -  1.00e+00 1.00e+00f  1
  39  3.2345258e+03 7.75e-02 3.10e+09  -2.5 6.39e+03    -  1.00e+00 9.75e-01f  1
iter    objective    inf_pr   inf_du lg(mu)  ||d||  lg(rg) alpha_du alpha_pr  ls
  40  3.2288177e+03 1.47e+00 3.18e+01  -2.5 5.38e+03    -  1.00e+00 1.00e+00f  1
  41  3.2273128e+03 1.33e+00 6.66e+01  -2.5 4.75e+04    -  1.00e+00 7.47e-01f  1
  42  3.1973819e+03 7.75e+00 8.44e+01  -2.5 2.87e+04    -  1.00e+00 1.00e+00f  1
  43  3.2011978e+03 1.12e+00 1.69e+02  -2.5 2.62e+04    -  1.00e+00 1.00e+00h  1
  44  3.1943586e+03 8.22e+00 1.88e+02  -2.5 2.77e+04    -  1.00e+00 1.00e+00f  1
  45  3.2000312e+03 1.13e+00 1.85e+02  -2.5 2.96e+04    -  1.00e+00 1.00e+00h  1
  46  3.1938902e+03 8.26e+00 1.93e+02  -2.5 3.02e+04    -  1.00e+00 1.00e+00f  1
  47  3.2001223e+03 1.14e+00 1.86e+02  -2.5 3.04e+04    -  1.00e+00 1.00e+00h  1
  48  3.1938252e+03 8.26e+00 1.93e+02  -2.5 3.04e+04    -  1.00e+00 1.00e+00f  1
  49  3.2001381e+03 1.14e+00 1.86e+02  -2.5 3.04e+04    -  1.00e+00 1.00e+00h  1
iter    objective    inf_pr   inf_du lg(mu)  ||d||  lg(rg) alpha_du alpha_pr  ls
  50  3.1938246e+03 8.26e+00 1.93e+02  -2.5 3.04e+04    -  1.00e+00 1.00e+00f  1
  51  3.2001379e+03 1.14e+00 1.86e+02  -2.5 3.04e+04    -  1.00e+00 1.00e+00h  1
  52  3.1938259e+03 8.26e+00 1.93e+02  -2.5 3.04e+04    -  1.00e+00 1.00e+00f  1
  53  3.2001376e+03 1.14e+00 1.86e+02  -2.5 3.04e+04    -  1.00e+00 1.00e+00h  1
  54  3.1943278e+03 4.13e+00 1.42e+02  -2.5 3.04e+04    -  1.00e+00 5.00e-01f  2
  55  3.2091395e+03 1.17e+00 4.53e+01  -2.5 1.37e+04    -  1.00e+00 1.00e+00h  1
  56  3.1996407e+03 4.08e+00 6.66e+01  -2.5 2.51e+04    -  1.00e+00 5.00e-01f  2
  57  3.2091965e+03 1.17e+00 4.29e+01  -2.5 1.26e+04    -  1.00e+00 1.00e+00h  1
  58  3.2039077e+03 2.04e+00 4.32e+01  -2.5 2.51e+04    -  1.00e+00 2.50e-01f  3
  59  3.2121546e+03 1.21e+00 1.07e+01  -2.5 7.56e+03    -  1.00e+00 1.00e+00h  1
iter    objective    inf_pr   inf_du lg(mu)  ||d||  lg(rg) alpha_du alpha_pr  ls
  60  3.1942332e+03 8.16e+00 1.64e+02  -2.5 2.64e+04    -  1.00e+00 1.00e+00f  1
  61  3.1998230e+03 1.07e+00 1.63e+02  -2.5 2.48e+04    -  1.00e+00 1.00e+00h  1
  62  3.1945615e+03 4.12e+00 1.31e+02  -2.5 2.88e+04    -  1.00e+00 5.00e-01f  2
  63  3.2090925e+03 1.17e+00 4.64e+01  -2.5 1.43e+04    -  1.00e+00 1.00e+00h  1
  64  3.1996188e+03 4.08e+00 6.72e+01  -2.5 2.51e+04    -  1.00e+00 5.00e-01f  2
  65  3.2091951e+03 1.17e+00 4.30e+01  -2.5 1.26e+04    -  1.00e+00 1.00e+00h  1
  66  3.2039065e+03 2.04e+00 4.32e+01  -2.5 2.51e+04    -  1.00e+00 2.50e-01f  3
  67  3.2121545e+03 1.21e+00 1.07e+01  -2.5 7.56e+03    -  1.00e+00 1.00e+00h  1
  68  3.2011017e+03 4.08e+00 4.71e+01  -2.5 2.64e+04    -  1.00e+00 5.00e-01f  2
  69  3.2092306e+03 1.17e+00 4.13e+01  -2.5 1.20e+04    -  1.00e+00 1.00e+00h  1
iter    objective    inf_pr   inf_du lg(mu)  ||d||  lg(rg) alpha_du alpha_pr  ls
  70  3.2064485e+03 1.03e+00 3.89e+01  -2.5 2.52e+04    -  1.00e+00 1.25e-01f  4
  71  3.2464589e+03 6.24e-02 1.81e+02  -2.5 3.57e+04    -  1.00e+00 1.00e+00h  1
  72  3.2351429e+03 3.14e-01 3.31e+01  -2.5 8.89e+03    -  1.00e+00 1.00e+00f  1
  73  3.2251052e+03 5.56e-01 1.92e+01  -2.5 5.98e+04    -  1.00e+00 2.76e-01f  2
  74  3.2224726e+03 9.18e-01 2.39e+01  -2.5 1.69e+04    -  1.00e+00 1.25e-01f  4
  75  3.2161240e+03 9.34e-01 1.84e+01  -2.5 2.46e+04    -  1.00e+00 5.00e-01f  2
  76  3.2149209e+03 8.78e-01 1.73e+01  -2.5 1.88e+04    -  1.00e+00 6.25e-02f  5
  77  3.2486527e+03 4.73e-02 1.07e+02  -2.5 3.05e+04    -  1.00e+00 1.00e+00h  1
  78  3.2373307e+03 3.35e-03 1.15e+00  -2.5 7.87e+03    -  1.00e+00 1.00e+00f  1
  79  3.2371621e+03 1.58e-05 3.07e-03  -3.8 1.10e+02    -  1.00e+00 1.00e+00f  1
iter    objective    inf_pr   inf_du lg(mu)  ||d||  lg(rg) alpha_du alpha_pr  ls
  80  3.2371620e+03 2.89e-10 1.70e+03  -8.6 1.81e+00    -  1.00e+00 1.00e+00h  1
  81  3.2371620e+03 2.97e-11 1.12e-10  -8.6 4.31e-05    -  1.00e+00 1.00e+00h  1

Number of Iterations....: 81

                                   (scaled)                 (unscaled)
Objective...............:   3.2371620126250978e+03    3.2371620126250978e+03
Dual infeasibility......:   1.1245029755790563e-10    1.1245029755790563e-10
Constraint violation....:   2.9677593715859985e-11    2.9677593715859985e-11
Complementarity.........:   2.5059035604714974e-09    2.5059035604714974e-09
Overall NLP error.......:   3.8577972314782903e-10    2.5059035604714974e-09


Number of objective function evaluations             = 165
Number of objective gradient evaluations             = 82
Number of equality constraint evaluations            = 165
Number of inequality constraint evaluations          = 0
Number of equality constraint Jacobian evaluations   = 82
Number of inequality constraint Jacobian evaluations = 0
Number of Lagrangian Hessian evaluations             = 81
Total CPU secs in IPOPT (w/o function evaluations)   =      0.163
Total CPU secs in NLP function evaluations           =      3.322

EXIT: Optimal Solution Found.
